/*********************************************
 * OPL 20.1.0.0 Data

 *********************************************/
 
D=[[0 0.04 0.052 0.017 0.055 0.042],[0.032 0.041 0.039 0.027 0.023 0.043]];
T=[[0.026 0.017],[0.037 0.017],[0.032 0.033]];
Demand=[103 74 50 60 102 13];

